/* Objective function */
max: ;

/* Constraints */
R1: +x4 <= 0;
R2: +x2 <= 0;
R3: +x2 <= 0;
R4: +x1 <= 0;
R5: +x7 <= 0;
R6: +x3 <= 0;
R7: +x3 <= 0;
0 x1 <= 1;
R9: +x11 <= 0;
0 x1 <= 0;
R11: +x10 <= 0;
+x5 +x6 <= 0;
R13: +x12 <= 0;
+x8 +x9 <= 0;
R15: +x1 <= 0;
R16: +x1 <= 0;
R17: +x6 >= 0;
R18: +x6 >= 0;
R19: +x2 >= 0;
R20: +x1 >= 0;
R21: +x7 >= 0;
R22: +x7 >= 0;
R23: +x9 >= 0;
R24: +x8 >= 0;
+x10 +x12 >= 0;
R26: +x11 >= 1;
R27: +x4 >= 0;
R28: +x5 >= 0;
R29: +x3 >= 0;
R30: +x1 >= 0;
R31: +x1 >= 0;
R32: +x1 >= 0;
R33: +x2 >= 0;
R34: +x3 >= 0;
R35: +x4 >= 0;
R36: +x5 >= 0;
R37: +x6 >= 0;
R38: +x7 >= 0;
R39: +x8 >= 0;
R40: +x9 >= 0;
R41: +x10 >= 0;
R42: +x11 >= 0;
R43: +x12 >= 0;
